Optimal - objective value 12159.49283600
   3278 C3279                  1         30.8727203333336
   5853 C5854                  1         -102.863588428568
   6943 C6944                  1         116.136468047618
  12308 C12309                 1             -238.297151
  16415 C16416                 1         -109.160405761904
  16946 C16947                 1               -168.3808
  19177 C19178                 1         -220.709472999999
  19581 C19582                 1         -748.945500095237
